917754
37 30 941
30 39 6375
39 25 4093
25 31 7859
31 20 21913
20 32 24202
32 5 3290
5 24 63665
24 22 45980
22 4 23621
4 40 28500
40 18 18404
18 27 12606
27 19 17774
19 16 62440
16 3 71701
3 14 30026
14 17 42391
17 15 45489
15 8 26227
8 9 54349
9 6 47658
6 1 25297
1 10 6947
10 11 5506
11 35 5412
35 2 10541
2 21 11546
21 7 17005
7 36 11794
36 13 26785
13 28 6411
28 29 17517
29 38 745
38 23 7449
23 34 31609
34 12 39715
12 33 3967
33 26 15458
26 37 14546
